
  17    4
  10   10   10   10

   0   0   0   0   0   4 2 3 4 6 
   4  10  10  10  10   5 16 12 8 7 5 
   8  10  10  10  10   4 16 12 8 7 
   8  10  10  10  10   4 16 11 10 8 
  10  10  10  10  10   3 15 11 10 
   9  10  10  10  10   3 14 11 9 
   3  10  10  10  10   2 10 9 
   5  10  10  10  10   2 14 9 
   8  10  10  10  10   2 15 13 
   8  10  10  10  10   1 14 
   6  10  10  10  10   1 13 
  10  10  10  10  10   1 13 
   8  10  10  10  10   1 17
   8  10  10  10  10   1 17
   1  10  10  10  10   1 17
   7  10  10  10  10   1 17
   0   0   0   0   0   0 
